p cnf 71 222
3 1 0
3 2 0
-1 -2 -3 0
6 -4 0
6 -5 0
4 5 -6 0
6 -7 -8 0
-6 7 -8 0
6 7 8 0
-6 -7 8 0
9 -8 0
9 -7 0
8 7 -9 0
-10 3 0
-10 -9 0
-3 9 10 0
6 -5 -11 0
-6 5 -11 0
6 5 11 0
-6 -5 11 0
-12 1 0
-12 -11 0
-1 11 12 0
15 13 0
15 -14 0
-13 14 -15 0
-16 -7 -17 0
16 7 -17 0
-16 7 17 0
16 -7 17 0
15 17 -18 0
-15 -17 -18 0
15 -17 18 0
-15 17 18 0
-19 -12 0
-19 -18 0
12 18 19 0
22 -20 0
22 21 0
20 -21 -22 0
24 -4 0
24 -23 0
4 23 -24 0
25 8 0
25 -24 0
-8 24 -25 0
26 -22 0
26 -25 0
22 25 -26 0
-28 -27 0
-28 20 0
27 -20 28 0
29 -28 0
29 -21 0
28 21 -29 0
-31 29 0
-31 30 0
-29 -30 31 0
-32 9 0
-32 31 0
-9 -31 32 0
33 -32 0
33 20 0
32 -20 -33 0
-5 -24 -34 0
5 24 -34 0
-5 24 34 0
5 -24 34 0
35 34 0
35 -27 0
-34 27 -35 0
-36 33 0
-36 -35 0
-33 35 36 0
-7 -37 -38 0
7 37 -38 0
-7 37 38 0
7 -37 38 0
23 39 0
-23 39 0
-40 -38 0
-40 -39 0
38 39 40 0
41 27 0
41 -40 0
-27 40 -41 0
-42 41 0
-42 37 0
-41 -37 42 0
43 36 0
43 42 0
-36 -42 -43 0
44 -34 0
44 6 0
34 -6 -44 0
-45 13 0
-45 44 0
-13 -44 45 0
-46 -20 0
-46 45 0
20 -45 46 0
-43 -46 -47 0
43 46 -47 0
-43 46 47 0
43 -46 47 0
-48 26 0
-48 47 0
-26 -47 48 0
-19 48 -49 0
19 -48 -49 0
-19 -48 49 0
19 48 49 0
50 20 0
50 4 0
-20 -4 -50 0
51 -11 0
51 -50 0
11 50 -51 0
-52 6 0
-52 13 0
-6 -13 52 0
-53 51 0
-53 -52 0
-51 52 53 0
-54 -4 0
-54 37 0
4 -37 54 0
-55 37 0
-55 6 0
-37 -6 55 0
-37 55 -56 0
37 -55 -56 0
-37 -55 56 0
37 55 56 0
57 -54 0
57 -56 0
54 56 -57 0
58 53 0
58 57 0
-53 -57 -58 0
59 -49 0
59 58 0
49 -58 -59 0
-10 -59 -60 0
10 59 -60 0
-10 59 60 0
10 -59 60 0
50 -13 -61 0
-50 13 -61 0
50 13 61 0
-50 -13 61 0
-62 -24 0
-62 -29 0
24 29 62 0
61 62 -63 0
-61 -62 -63 0
61 -62 63 0
-61 62 63 0
-64 4 0
-64 -13 0
-4 13 64 0
65 6 0
65 -55 0
-6 55 -65 0
66 -16 0
66 -6 0
16 6 -66 0
-67 -66 0
-67 -9 0
66 9 67 0
-65 -67 -68 0
65 67 -68 0
-65 67 68 0
65 -67 68 0
-69 64 0
-69 68 0
-64 -68 69 0
-70 -63 0
-70 69 0
63 -69 70 0
-60 70 -71 0
60 -70 -71 0
-60 -70 71 0
60 70 71 0
-42 -11 70 -32 15 0
6 26 -47 -10 -22 0
-34 20 -59 32 8 0
49 43 0
-59 69 -21 27 -57 0
-33 -22 18 0
64 -31 34 -22 -52 0
57 -53 -52 -67 12 -49 0
62 54 -44 20 0
-57 19 -36 -32 43 27 0
60 58 0
28 -4 -62 0
28 -33 70 -39 0
-16 69 -64 0
53 30 -66 0
-9 23 -4 28 -26 0
-6 -49 53 0
52 -53 25 56 0
24 -48 50 43 0
23 -60 -20 0
55 -63 0
18 -27 0
-33 23 -14 10 47 0
-63 27 0
-70 5 -10 -28 63 0
-19 42 56 48 -54 0
-1 16 6 -27 58 0
-55 -52 0
-48 25 23 0
14 41 57 68 -65 0
-39 -41 0
56 65 70 0
-22 -42 -38 -11 1 -3 0
37 8 55 -65 -5 -27 0
63 49 -21 -26 0
-26 5 55 0
-67 -18 60 -70 0
71 0
